38416 40601 
37690 41011 
36493 41305 
36998 41184 
37652 41042 
38444 40591 
38660 40563 
38058 40850 
39485 39992 
39314 40022 
34525 41382 
35708 41359 
36614 41273 
36258 41317 
36763 41196 
37417 41054 
39226 40079 
